(declare-const in0 Int)
(declare-const in2 Int)
(declare-const in1 Int)
(declare-const in4 Int)
(declare-const in3 Int)
(declare-const in6 Int)
(declare-const in5 Int)
(declare-const in8 Int)
(declare-const in7 Int)
(declare-const in11 Int)
(declare-const in10 Int)
(declare-const in13 Int)
(declare-const in12 Int)
(declare-const in15 Int)
(declare-const in14 Int)
(declare-const in17 Int)
(declare-const in16 Int)
(declare-const in18 Int)

(assert (and (and (and (and (and (and (and (and  ( <  in0 in18)  ( <  in1 in17))  ( <  in2 in16))  ( <  in3 in15))  ( <  in4 in14))  ( <  in5 in13))  ( <  in6 in12))  ( <  in7 in11))  ( <  in8 in10)))

(check-sat)
(get-model)